myproject/instances/20nodes/rnd39_20.tsp
NAME : rnd39_20.tsp
TYPE : TSP
DIMENSION : 20
EDGE_WEIGHT_TYPE : EUC_2D
NODE_COORD_SECTION
1 512 727
2 569 894
3 771 393
4 650 34
5 596 149
6 101 615
7 492 279
8 199 403
9 900 435
10 150 809
11 138 372
12 666 831
13 135 342
14 3 456
15 489 753
16 195 299
17 538 56
18 545 837
19 682 692
20 323 657
