myproject/instances/20nodes/rnd39_20.opt.tour
NAME : rnd39_20.tsp.tsp.opt.tour
TYPE : TOUR
DIMENSION : 20
TOUR_SECTION
1
9
3
5
18
8
19
12
13
11
20
4
6
17
14
15
2
16
10
7
-1